p cnf 336 1412
e 1 0
a 2 3 4 5 0
e 6 7 8 9 10 11 12 13 14 15 16 17 18 19 20 21 22 23 24 25 26 27 28 29 30 31 32 33 34 35 36 37 38 39 40 41 42 43 44 45 46 47 48 49 50 51 52 53 54 55 56 57 58 59 60 61 62 63 64 65 66 67 68 69 70 71 72 73 74 75 76 77 78 0
a 79 80 81 82 83 84 85 86 0
e 87 88 89 90 91 92 93 94 95 96 97 98 99 100 101 102 103 104 105 106 107 108 109 110 111 112 113 114 115 116 117 118 119 120 121 122 123 124 125 126 127 128 129 130 131 132 133 134 135 136 137 138 139 140 141 142 143 144 145 146 147 148 149 150 151 152 153 154 155 156 157 158 159 0
a 160 161 162 163 164 165 166 167 0
e 168 169 170 171 172 173 174 175 176 177 178 179 180 181 182 183 184 185 186 187 188 189 190 191 192 193 194 195 196 197 198 199 200 201 202 203 204 205 206 207 208 209 210 211 212 213 214 215 216 217 218 219 220 221 222 223 224 225 226 227 228 229 230 231 232 233 234 235 236 237 238 239 240 0
a 241 242 243 244 245 246 247 248 0
e 249 250 251 252 253 254 255 256 257 258 259 260 261 262 263 264 265 266 267 268 269 270 271 272 273 274 275 276 277 278 279 280 281 282 283 284 285 286 287 288 289 290 291 292 293 294 295 296 297 298 299 300 301 302 303 304 305 306 307 308 309 310 311 312 313 314 315 316 317 318 319 320 321 322 323 324 325 326 327 328 329 330 331 332 333 334 335 336 0
-1 2 3 4 5 47 0
-2 -1 3 4 5 49 0
-3 -1 2 4 5 51 0
-3 -2 -1 4 5 53 0
-4 -1 2 3 5 55 0
-4 -2 -1 3 5 57 0
-4 -3 -1 2 5 59 0
-4 -3 -2 -1 5 61 0
-5 -1 2 3 4 63 0
-5 -2 -1 3 4 65 0
-5 -3 -1 2 4 67 0
-5 -3 -2 -1 4 69 0
-5 -4 -1 2 3 71 0
-5 -4 -2 -1 3 73 0
-5 -4 -3 -1 2 75 0
-5 -4 -3 -2 -1 77 0
-78 46 79 80 81 82 128 0
-79 -78 48 80 81 82 130 0
-80 -78 50 79 81 82 132 0
-80 -79 -78 52 81 82 134 0
-81 -78 54 79 80 82 136 0
-81 -79 -78 56 80 82 138 0
-81 -80 -78 58 79 82 140 0
-81 -80 -79 -78 60 82 142 0
-82 -78 62 79 80 81 144 0
-82 -79 -78 64 80 81 146 0
-82 -80 -78 66 79 81 148 0
-82 -80 -79 -78 68 81 150 0
-82 -81 -78 70 79 80 152 0
-82 -81 -79 -78 72 80 154 0
-82 -81 -80 -78 74 79 156 0
-82 -81 -80 -79 -78 76 158 0
-78 46 83 84 85 86 128 0
-83 -78 48 84 85 86 130 0
-84 -78 50 83 85 86 132 0
-84 -83 -78 52 85 86 134 0
-85 -78 54 83 84 86 136 0
-85 -83 -78 56 84 86 138 0
-85 -84 -78 58 83 86 140 0
-85 -84 -83 -78 60 86 142 0
-86 -78 62 83 84 85 144 0
-86 -83 -78 64 84 85 146 0
-86 -84 -78 66 83 85 148 0
-86 -84 -83 -78 68 85 150 0
-86 -85 -78 70 83 84 152 0
-86 -85 -83 -78 72 84 154 0
-86 -85 -84 -78 74 83 156 0
-86 -85 -84 -83 -78 76 158 0
-159 127 160 161 162 163 209 0
-160 -159 129 161 162 163 211 0
-161 -159 131 160 162 163 213 0
-161 -160 -159 133 162 163 215 0
-162 -159 135 160 161 163 217 0
-162 -160 -159 137 161 163 219 0
-162 -161 -159 139 160 163 221 0
-162 -161 -160 -159 141 163 223 0
-163 -159 143 160 161 162 225 0
-163 -160 -159 145 161 162 227 0
-163 -161 -159 147 160 162 229 0
-163 -161 -160 -159 149 162 231 0
-163 -162 -159 151 160 161 233 0
-163 -162 -160 -159 153 161 235 0
-163 -162 -161 -159 155 160 237 0
-163 -162 -161 -160 -159 157 239 0
-159 127 164 165 166 167 209 0
-164 -159 129 165 166 167 211 0
-165 -159 131 164 166 167 213 0
-165 -164 -159 133 166 167 215 0
-166 -159 135 164 165 167 217 0
-166 -164 -159 137 165 167 219 0
-166 -165 -159 139 164 167 221 0
-166 -165 -164 -159 141 167 223 0
-167 -159 143 164 165 166 225 0
-167 -164 -159 145 165 166 227 0
-167 -165 -159 147 164 166 229 0
-167 -165 -164 -159 149 166 231 0
-167 -166 -159 151 164 165 233 0
-167 -166 -164 -159 153 165 235 0
-167 -166 -165 -159 155 164 237 0
-167 -166 -165 -164 -159 157 239 0
-240 208 241 242 243 244 290 0
-241 -240 210 242 243 244 292 0
-242 -240 212 241 243 244 294 0
-242 -241 -240 214 243 244 296 0
-243 -240 216 241 242 244 298 0
-243 -241 -240 218 242 244 300 0
-243 -242 -240 220 241 244 302 0
-243 -242 -241 -240 222 244 304 0
-244 -240 224 241 242 243 306 0
-244 -241 -240 226 242 243 308 0
-244 -242 -240 228 241 243 310 0
-244 -242 -241 -240 230 243 312 0
-244 -243 -240 232 241 242 314 0
-244 -243 -241 -240 234 242 316 0
-244 -243 -242 -240 236 241 318 0
-244 -243 -242 -241 -240 238 320 0
-240 208 245 246 247 248 290 0
-245 -240 210 246 247 248 292 0
-246 -240 212 245 247 248 294 0
-246 -245 -240 214 247 248 296 0
-247 -240 216 245 246 248 298 0
-247 -245 -240 218 246 248 300 0
-247 -246 -240 220 245 248 302 0
-247 -246 -245 -240 222 248 304 0
-248 -240 224 245 246 247 306 0
-248 -245 -240 226 246 247 308 0
-248 -246 -240 228 245 247 310 0
-248 -246 -245 -240 230 247 312 0
-248 -247 -240 232 245 246 314 0
-248 -247 -245 -240 234 246 316 0
-248 -247 -246 -240 236 245 318 0
-248 -247 -246 -245 -240 238 320 0
-14 -6 0
-14 -7 0
-14 -8 0
-14 -9 0
-15 6 0
-15 -7 0
-15 -8 0
-15 -9 0
-16 -6 0
-16 7 0
-16 -8 0
-16 -9 0
-17 6 0
-17 7 0
-17 -8 0
-17 -9 0
-18 -6 0
-18 -7 0
-18 8 0
-18 -9 0
-19 6 0
-19 -7 0
-19 8 0
-19 -9 0
-20 -6 0
-20 7 0
-20 8 0
-20 -9 0
-21 6 0
-21 7 0
-21 8 0
-21 -9 0
-22 -6 0
-22 -7 0
-22 -8 0
-22 9 0
-23 6 0
-23 -7 0
-23 -8 0
-23 9 0
-24 -6 0
-24 7 0
-24 -8 0
-24 9 0
-25 6 0
-25 7 0
-25 -8 0
-25 9 0
-26 -6 0
-26 -7 0
-26 8 0
-26 9 0
-27 6 0
-27 -7 0
-27 8 0
-27 9 0
-28 -6 0
-28 7 0
-28 8 0
-28 9 0
-29 6 0
-29 7 0
-29 8 0
-29 9 0
-30 -10 0
-30 -11 0
-30 -12 0
-30 -13 0
-31 10 0
-31 -11 0
-31 -12 0
-31 -13 0
-32 -10 0
-32 11 0
-32 -12 0
-32 -13 0
-33 10 0
-33 11 0
-33 -12 0
-33 -13 0
-34 -10 0
-34 -11 0
-34 12 0
-34 -13 0
-35 10 0
-35 -11 0
-35 12 0
-35 -13 0
-36 -10 0
-36 11 0
-36 12 0
-36 -13 0
-37 10 0
-37 11 0
-37 12 0
-37 -13 0
-38 -10 0
-38 -11 0
-38 -12 0
-38 13 0
-39 10 0
-39 -11 0
-39 -12 0
-39 13 0
-40 -10 0
-40 11 0
-40 -12 0
-40 13 0
-41 10 0
-41 11 0
-41 -12 0
-41 13 0
-42 -10 0
-42 -11 0
-42 12 0
-42 13 0
-43 10 0
-43 -11 0
-43 12 0
-43 13 0
-44 -10 0
-44 11 0
-44 12 0
-44 13 0
-45 10 0
-45 11 0
-45 12 0
-45 13 0
-95 -87 0
-95 -88 0
-95 -89 0
-95 -90 0
-96 87 0
-96 -88 0
-96 -89 0
-96 -90 0
-97 -87 0
-97 88 0
-97 -89 0
-97 -90 0
-98 87 0
-98 88 0
-98 -89 0
-98 -90 0
-99 -87 0
-99 -88 0
-99 89 0
-99 -90 0
-100 87 0
-100 -88 0
-100 89 0
-100 -90 0
-101 -87 0
-101 88 0
-101 89 0
-101 -90 0
-102 87 0
-102 88 0
-102 89 0
-102 -90 0
-103 -87 0
-103 -88 0
-103 -89 0
-103 90 0
-104 87 0
-104 -88 0
-104 -89 0
-104 90 0
-105 -87 0
-105 88 0
-105 -89 0
-105 90 0
-106 87 0
-106 88 0
-106 -89 0
-106 90 0
-107 -87 0
-107 -88 0
-107 89 0
-107 90 0
-108 87 0
-108 -88 0
-108 89 0
-108 90 0
-109 -87 0
-109 88 0
-109 89 0
-109 90 0
-110 87 0
-110 88 0
-110 89 0
-110 90 0
-111 -91 0
-111 -92 0
-111 -93 0
-111 -94 0
-112 91 0
-112 -92 0
-112 -93 0
-112 -94 0
-113 -91 0
-113 92 0
-113 -93 0
-113 -94 0
-114 91 0
-114 92 0
-114 -93 0
-114 -94 0
-115 -91 0
-115 -92 0
-115 93 0
-115 -94 0
-116 91 0
-116 -92 0
-116 93 0
-116 -94 0
-117 -91 0
-117 92 0
-117 93 0
-117 -94 0
-118 91 0
-118 92 0
-118 93 0
-118 -94 0
-119 -91 0
-119 -92 0
-119 -93 0
-119 94 0
-120 91 0
-120 -92 0
-120 -93 0
-120 94 0
-121 -91 0
-121 92 0
-121 -93 0
-121 94 0
-122 91 0
-122 92 0
-122 -93 0
-122 94 0
-123 -91 0
-123 -92 0
-123 93 0
-123 94 0
-124 91 0
-124 -92 0
-124 93 0
-124 94 0
-125 -91 0
-125 92 0
-125 93 0
-125 94 0
-126 91 0
-126 92 0
-126 93 0
-126 94 0
-176 -168 0
-176 -169 0
-176 -170 0
-176 -171 0
-177 168 0
-177 -169 0
-177 -170 0
-177 -171 0
-178 -168 0
-178 169 0
-178 -170 0
-178 -171 0
-179 168 0
-179 169 0
-179 -170 0
-179 -171 0
-180 -168 0
-180 -169 0
-180 170 0
-180 -171 0
-181 168 0
-181 -169 0
-181 170 0
-181 -171 0
-182 -168 0
-182 169 0
-182 170 0
-182 -171 0
-183 168 0
-183 169 0
-183 170 0
-183 -171 0
-184 -168 0
-184 -169 0
-184 -170 0
-184 171 0
-185 168 0
-185 -169 0
-185 -170 0
-185 171 0
-186 -168 0
-186 169 0
-186 -170 0
-186 171 0
-187 168 0
-187 169 0
-187 -170 0
-187 171 0
-188 -168 0
-188 -169 0
-188 170 0
-188 171 0
-189 168 0
-189 -169 0
-189 170 0
-189 171 0
-190 -168 0
-190 169 0
-190 170 0
-190 171 0
-191 168 0
-191 169 0
-191 170 0
-191 171 0
-192 -172 0
-192 -173 0
-192 -174 0
-192 -175 0
-193 172 0
-193 -173 0
-193 -174 0
-193 -175 0
-194 -172 0
-194 173 0
-194 -174 0
-194 -175 0
-195 172 0
-195 173 0
-195 -174 0
-195 -175 0
-196 -172 0
-196 -173 0
-196 174 0
-196 -175 0
-197 172 0
-197 -173 0
-197 174 0
-197 -175 0
-198 -172 0
-198 173 0
-198 174 0
-198 -175 0
-199 172 0
-199 173 0
-199 174 0
-199 -175 0
-200 -172 0
-200 -173 0
-200 -174 0
-200 175 0
-201 172 0
-201 -173 0
-201 -174 0
-201 175 0
-202 -172 0
-202 173 0
-202 -174 0
-202 175 0
-203 172 0
-203 173 0
-203 -174 0
-203 175 0
-204 -172 0
-204 -173 0
-204 174 0
-204 175 0
-205 172 0
-205 -173 0
-205 174 0
-205 175 0
-206 -172 0
-206 173 0
-206 174 0
-206 175 0
-207 172 0
-207 173 0
-207 174 0
-207 175 0
-257 -249 0
-257 -250 0
-257 -251 0
-257 -252 0
-258 249 0
-258 -250 0
-258 -251 0
-258 -252 0
-259 -249 0
-259 250 0
-259 -251 0
-259 -252 0
-260 249 0
-260 250 0
-260 -251 0
-260 -252 0
-261 -249 0
-261 -250 0
-261 251 0
-261 -252 0
-262 249 0
-262 -250 0
-262 251 0
-262 -252 0
-263 -249 0
-263 250 0
-263 251 0
-263 -252 0
-264 249 0
-264 250 0
-264 251 0
-264 -252 0
-265 -249 0
-265 -250 0
-265 -251 0
-265 252 0
-266 249 0
-266 -250 0
-266 -251 0
-266 252 0
-267 -249 0
-267 250 0
-267 -251 0
-267 252 0
-268 249 0
-268 250 0
-268 -251 0
-268 252 0
-269 -249 0
-269 -250 0
-269 251 0
-269 252 0
-270 249 0
-270 -250 0
-270 251 0
-270 252 0
-271 -249 0
-271 250 0
-271 251 0
-271 252 0
-272 249 0
-272 250 0
-272 251 0
-272 252 0
-273 -253 0
-273 -254 0
-273 -255 0
-273 -256 0
-274 253 0
-274 -254 0
-274 -255 0
-274 -256 0
-275 -253 0
-275 254 0
-275 -255 0
-275 -256 0
-276 253 0
-276 254 0
-276 -255 0
-276 -256 0
-277 -253 0
-277 -254 0
-277 255 0
-277 -256 0
-278 253 0
-278 -254 0
-278 255 0
-278 -256 0
-279 -253 0
-279 254 0
-279 255 0
-279 -256 0
-280 253 0
-280 254 0
-280 255 0
-280 -256 0
-281 -253 0
-281 -254 0
-281 -255 0
-281 256 0
-282 253 0
-282 -254 0
-282 -255 0
-282 256 0
-283 -253 0
-283 254 0
-283 -255 0
-283 256 0
-284 253 0
-284 254 0
-284 -255 0
-284 256 0
-285 -253 0
-285 -254 0
-285 255 0
-285 256 0
-286 253 0
-286 -254 0
-286 255 0
-286 256 0
-287 -253 0
-287 254 0
-287 255 0
-287 256 0
-288 253 0
-288 254 0
-288 255 0
-288 256 0
-95 -46 0
-96 -48 0
-97 -50 0
-98 -52 0
-99 -54 0
-100 -56 0
-101 -58 0
-102 -60 0
-103 -62 0
-104 -64 0
-105 -66 0
-106 -68 0
-107 -70 0
-108 -72 0
-109 -74 0
-110 -76 0
-111 -46 0
-112 -48 0
-113 -50 0
-114 -52 0
-115 -54 0
-116 -56 0
-117 -58 0
-118 -60 0
-119 -62 0
-120 -64 0
-121 -66 0
-122 -68 0
-123 -70 0
-124 -72 0
-125 -74 0
-126 -76 0
-176 -127 0
-177 -129 0
-178 -131 0
-179 -133 0
-180 -135 0
-181 -137 0
-182 -139 0
-183 -141 0
-184 -143 0
-185 -145 0
-186 -147 0
-187 -149 0
-188 -151 0
-189 -153 0
-190 -155 0
-191 -157 0
-192 -127 0
-193 -129 0
-194 -131 0
-195 -133 0
-196 -135 0
-197 -137 0
-198 -139 0
-199 -141 0
-200 -143 0
-201 -145 0
-202 -147 0
-203 -149 0
-204 -151 0
-205 -153 0
-206 -155 0
-207 -157 0
-257 -208 0
-258 -210 0
-259 -212 0
-260 -214 0
-261 -216 0
-262 -218 0
-263 -220 0
-264 -222 0
-265 -224 0
-266 -226 0
-267 -228 0
-268 -230 0
-269 -232 0
-270 -234 0
-271 -236 0
-272 -238 0
-273 -208 0
-274 -210 0
-275 -212 0
-276 -214 0
-277 -216 0
-278 -218 0
-279 -220 0
-280 -222 0
-281 -224 0
-282 -226 0
-283 -228 0
-284 -230 0
-285 -232 0
-286 -234 0
-287 -236 0
-288 -238 0
-14 46 0
-15 48 0
-16 50 0
-17 52 0
-18 54 0
-19 56 0
-20 58 0
-21 60 0
-22 62 0
-23 64 0
-24 66 0
-25 68 0
-26 70 0
-27 72 0
-28 74 0
-29 76 0
-30 46 0
-31 48 0
-32 50 0
-33 52 0
-34 54 0
-35 56 0
-36 58 0
-37 60 0
-38 62 0
-39 64 0
-40 66 0
-41 68 0
-42 70 0
-43 72 0
-44 74 0
-45 76 0
-95 127 0
-96 129 0
-97 131 0
-98 133 0
-99 135 0
-100 137 0
-101 139 0
-102 141 0
-103 143 0
-104 145 0
-105 147 0
-106 149 0
-107 151 0
-108 153 0
-109 155 0
-110 157 0
-111 127 0
-112 129 0
-113 131 0
-114 133 0
-115 135 0
-116 137 0
-117 139 0
-118 141 0
-119 143 0
-120 145 0
-121 147 0
-122 149 0
-123 151 0
-124 153 0
-125 155 0
-126 157 0
-176 208 0
-177 210 0
-178 212 0
-179 214 0
-180 216 0
-181 218 0
-182 220 0
-183 222 0
-184 224 0
-185 226 0
-186 228 0
-187 230 0
-188 232 0
-189 234 0
-190 236 0
-191 238 0
-192 208 0
-193 210 0
-194 212 0
-195 214 0
-196 216 0
-197 218 0
-198 220 0
-199 222 0
-200 224 0
-201 226 0
-202 228 0
-203 230 0
-204 232 0
-205 234 0
-206 236 0
-207 238 0
-257 289 0
-258 291 0
-259 293 0
-260 295 0
-261 297 0
-262 299 0
-263 301 0
-264 303 0
-265 305 0
-266 307 0
-267 309 0
-268 311 0
-269 313 0
-270 315 0
-271 317 0
-272 319 0
-273 289 0
-274 291 0
-275 293 0
-276 295 0
-277 297 0
-278 299 0
-279 301 0
-280 303 0
-281 305 0
-282 307 0
-283 309 0
-284 311 0
-285 313 0
-286 315 0
-287 317 0
-288 319 0
-14 1 0
-15 1 0
-16 1 0
-17 1 0
-18 1 0
-19 1 0
-20 1 0
-21 1 0
-22 1 0
-23 1 0
-24 1 0
-25 1 0
-26 1 0
-27 1 0
-28 1 0
-29 1 0
-30 1 0
-31 1 0
-32 1 0
-33 1 0
-34 1 0
-35 1 0
-36 1 0
-37 1 0
-38 1 0
-39 1 0
-40 1 0
-41 1 0
-42 1 0
-43 1 0
-44 1 0
-45 1 0
-95 78 0
-96 78 0
-97 78 0
-98 78 0
-99 78 0
-100 78 0
-101 78 0
-102 78 0
-103 78 0
-104 78 0
-105 78 0
-106 78 0
-107 78 0
-108 78 0
-109 78 0
-110 78 0
-111 78 0
-112 78 0
-113 78 0
-114 78 0
-115 78 0
-116 78 0
-117 78 0
-118 78 0
-119 78 0
-120 78 0
-121 78 0
-122 78 0
-123 78 0
-124 78 0
-125 78 0
-126 78 0
-176 159 0
-177 159 0
-178 159 0
-179 159 0
-180 159 0
-181 159 0
-182 159 0
-183 159 0
-184 159 0
-185 159 0
-186 159 0
-187 159 0
-188 159 0
-189 159 0
-190 159 0
-191 159 0
-192 159 0
-193 159 0
-194 159 0
-195 159 0
-196 159 0
-197 159 0
-198 159 0
-199 159 0
-200 159 0
-201 159 0
-202 159 0
-203 159 0
-204 159 0
-205 159 0
-206 159 0
-207 159 0
-257 240 0
-258 240 0
-259 240 0
-260 240 0
-261 240 0
-262 240 0
-263 240 0
-264 240 0
-265 240 0
-266 240 0
-267 240 0
-268 240 0
-269 240 0
-270 240 0
-271 240 0
-272 240 0
-273 240 0
-274 240 0
-275 240 0
-276 240 0
-277 240 0
-278 240 0
-279 240 0
-280 240 0
-281 240 0
-282 240 0
-283 240 0
-284 240 0
-285 240 0
-286 240 0
-287 240 0
-288 240 0
-46 14 30 0
-48 15 31 0
-50 16 32 0
-52 17 33 0
-54 18 34 0
-56 19 35 0
-58 20 36 0
-60 21 37 0
-62 22 38 0
-64 23 39 0
-66 24 40 0
-68 25 41 0
-70 26 42 0
-72 27 43 0
-74 28 44 0
-76 29 45 0
-127 46 95 111 0
-129 48 96 112 0
-131 50 97 113 0
-133 52 98 114 0
-135 54 99 115 0
-137 56 100 116 0
-139 58 101 117 0
-141 60 102 118 0
-143 62 103 119 0
-145 64 104 120 0
-147 66 105 121 0
-149 68 106 122 0
-151 70 107 123 0
-153 72 108 124 0
-155 74 109 125 0
-157 76 110 126 0
-208 127 176 192 0
-210 129 177 193 0
-212 131 178 194 0
-214 133 179 195 0
-216 135 180 196 0
-218 137 181 197 0
-220 139 182 198 0
-222 141 183 199 0
-224 143 184 200 0
-226 145 185 201 0
-228 147 186 202 0
-230 149 187 203 0
-232 151 188 204 0
-234 153 189 205 0
-236 155 190 206 0
-238 157 191 207 0
-289 208 257 273 0
-291 210 258 274 0
-293 212 259 275 0
-295 214 260 276 0
-297 216 261 277 0
-299 218 262 278 0
-301 220 263 279 0
-303 222 264 280 0
-305 224 265 281 0
-307 226 266 282 0
-309 228 267 283 0
-311 230 268 284 0
-313 232 269 285 0
-315 234 270 286 0
-317 236 271 287 0
-319 238 272 288 0
-47 -46 0
-128 -127 0
-209 -208 0
-290 -289 0
-49 -48 0
-130 -129 0
-211 -210 0
-292 -291 0
-51 -50 0
-132 -131 0
-213 -212 0
-294 -293 0
-53 -52 0
-134 -133 0
-215 -214 0
-296 -295 0
-55 -54 0
-136 -135 0
-217 -216 0
-298 -297 0
-57 -56 0
-138 -137 0
-219 -218 0
-300 -299 0
-59 -58 0
-140 -139 0
-221 -220 0
-302 -301 0
-61 -60 0
-142 -141 0
-223 -222 0
-304 -303 0
-63 -62 0
-144 -143 0
-225 -224 0
-306 -305 0
-65 -64 0
-146 -145 0
-227 -226 0
-308 -307 0
-67 -66 0
-148 -147 0
-229 -228 0
-310 -309 0
-69 -68 0
-150 -149 0
-231 -230 0
-312 -311 0
-71 -70 0
-152 -151 0
-233 -232 0
-314 -313 0
-73 -72 0
-154 -153 0
-235 -234 0
-316 -315 0
-75 -74 0
-156 -155 0
-237 -236 0
-318 -317 0
-77 -76 0
-158 -157 0
-239 -238 0
-320 -319 0
-78 1 0
-159 78 0
-240 159 0
-46 127 0
-47 128 0
-48 129 0
-49 130 0
-50 131 0
-51 132 0
-52 133 0
-53 134 0
-54 135 0
-55 136 0
-56 137 0
-57 138 0
-58 139 0
-59 140 0
-60 141 0
-61 142 0
-62 143 0
-63 144 0
-64 145 0
-65 146 0
-66 147 0
-67 148 0
-68 149 0
-69 150 0
-70 151 0
-71 152 0
-72 153 0
-73 154 0
-74 155 0
-75 156 0
-76 157 0
-77 158 0
-127 208 0
-128 209 0
-129 210 0
-130 211 0
-131 212 0
-132 213 0
-133 214 0
-134 215 0
-135 216 0
-136 217 0
-137 218 0
-138 219 0
-139 220 0
-140 221 0
-141 222 0
-142 223 0
-143 224 0
-144 225 0
-145 226 0
-146 227 0
-147 228 0
-148 229 0
-149 230 0
-150 231 0
-151 232 0
-152 233 0
-153 234 0
-154 235 0
-155 236 0
-156 237 0
-157 238 0
-158 239 0
-208 289 0
-209 290 0
-210 291 0
-211 292 0
-212 293 0
-213 294 0
-214 295 0
-215 296 0
-216 297 0
-217 298 0
-218 299 0
-219 300 0
-220 301 0
-221 302 0
-222 303 0
-223 304 0
-224 305 0
-225 306 0
-226 307 0
-227 308 0
-228 309 0
-229 310 0
-230 311 0
-231 312 0
-232 313 0
-233 314 0
-234 315 0
-235 316 0
-236 317 0
-237 318 0
-238 319 0
-239 320 0
-46 1 0
-47 1 0
-48 1 0
-49 1 0
-50 1 0
-51 1 0
-52 1 0
-53 1 0
-54 1 0
-55 1 0
-56 1 0
-57 1 0
-58 1 0
-59 1 0
-60 1 0
-61 1 0
-62 1 0
-63 1 0
-64 1 0
-65 1 0
-66 1 0
-67 1 0
-68 1 0
-69 1 0
-70 1 0
-71 1 0
-72 1 0
-73 1 0
-74 1 0
-75 1 0
-76 1 0
-77 1 0
-127 46 78 0
-128 47 78 0
-129 48 78 0
-130 49 78 0
-131 50 78 0
-132 51 78 0
-133 52 78 0
-134 53 78 0
-135 54 78 0
-136 55 78 0
-137 56 78 0
-138 57 78 0
-139 58 78 0
-140 59 78 0
-141 60 78 0
-142 61 78 0
-143 62 78 0
-144 63 78 0
-145 64 78 0
-146 65 78 0
-147 66 78 0
-148 67 78 0
-149 68 78 0
-150 69 78 0
-151 70 78 0
-152 71 78 0
-153 72 78 0
-154 73 78 0
-155 74 78 0
-156 75 78 0
-157 76 78 0
-158 77 78 0
-208 127 159 0
-209 128 159 0
-210 129 159 0
-211 130 159 0
-212 131 159 0
-213 132 159 0
-214 133 159 0
-215 134 159 0
-216 135 159 0
-217 136 159 0
-218 137 159 0
-219 138 159 0
-220 139 159 0
-221 140 159 0
-222 141 159 0
-223 142 159 0
-224 143 159 0
-225 144 159 0
-226 145 159 0
-227 146 159 0
-228 147 159 0
-229 148 159 0
-230 149 159 0
-231 150 159 0
-232 151 159 0
-233 152 159 0
-234 153 159 0
-235 154 159 0
-236 155 159 0
-237 156 159 0
-238 157 159 0
-239 158 159 0
-289 208 240 0
-290 209 240 0
-291 210 240 0
-292 211 240 0
-293 212 240 0
-294 213 240 0
-295 214 240 0
-296 215 240 0
-297 216 240 0
-298 217 240 0
-299 218 240 0
-300 219 240 0
-301 220 240 0
-302 221 240 0
-303 222 240 0
-304 223 240 0
-305 224 240 0
-306 225 240 0
-307 226 240 0
-308 227 240 0
-309 228 240 0
-310 229 240 0
-311 230 240 0
-312 231 240 0
-313 232 240 0
-314 233 240 0
-315 234 240 0
-316 235 240 0
-317 236 240 0
-318 237 240 0
-319 238 240 0
-320 239 240 0
321 322 323 324 325 326 327 328 329 330 331 332 333 334 335 336 0
-321 289 0
-321 297 0
-321 305 0
-322 289 0
-322 291 0
-322 293 0
-323 291 0
-323 299 0
-323 307 0
-324 291 0
-324 293 0
-324 295 0
-325 293 0
-325 301 0
-325 309 0
-326 295 0
-326 303 0
-326 311 0
-327 297 0
-327 305 0
-327 313 0
-328 297 0
-328 299 0
-328 301 0
-329 299 0
-329 307 0
-329 315 0
-330 299 0
-330 301 0
-330 303 0
-331 301 0
-331 309 0
-331 317 0
-332 303 0
-332 311 0
-332 319 0
-333 305 0
-333 307 0
-333 309 0
-334 307 0
-334 309 0
-334 311 0
-335 313 0
-335 315 0
-335 317 0
-336 315 0
-336 317 0
-336 319 0
-305 -297 -289 321 0
-293 -291 -289 322 0
-307 -299 -291 323 0
-295 -293 -291 324 0
-309 -301 -293 325 0
-311 -303 -295 326 0
-313 -305 -297 327 0
-301 -299 -297 328 0
-315 -307 -299 329 0
-303 -301 -299 330 0
-317 -309 -301 331 0
-319 -311 -303 332 0
-309 -307 -305 333 0
-311 -309 -307 334 0
-317 -315 -313 335 0
-319 -317 -315 336 0
-306 -298 -290 0
-294 -292 -290 0
-308 -300 -292 0
-296 -294 -292 0
-310 -302 -294 0
-312 -304 -296 0
-314 -306 -298 0
-302 -300 -298 0
-316 -308 -300 0
-304 -302 -300 0
-318 -310 -302 0
-320 -312 -304 0
-310 -308 -306 0
-312 -310 -308 0
-318 -316 -314 0
-320 -318 -316 0
